(declare-sort $$unsorted 0)
(declare-fun tptp.op ($$unsorted $$unsorted) $$unsorted)
(assert (forall ((X0 $$unsorted) (X1 $$unsorted) (X2 $$unsorted) (X3 $$unsorted) (X4 $$unsorted)) (= (tptp.op X0 X0) (tptp.op (tptp.op X1 X2) (tptp.op X0 X3)))))
(assert (not (forall ((X0 $$unsorted) (X1 $$unsorted) (X2 $$unsorted) (X3 $$unsorted) (X4 $$unsorted)) (= (tptp.op X0 X0) (tptp.op (tptp.op X1 X2) (tptp.op X3 X4))))))
(set-info :filename Equation3697_implies_Equation3710)
(check-sat-assuming ( true ))
